<number of tasks>
89

<cycle time>
79

<task times>
1 28
2 17
3 7
4 10
5 12
6 16
7 13
8 8
9 13
10 24
11 16
12 24
13 12
14 20
15 22
16 22
17 22
18 47
19 6
20 12
21 6
22 22
23 7
24 14
25 68
26 15
27 8
28 74
29 32
30 11
31 18
32 15
33 42
34 27
35 38
36 38
37 26
38 35
39 31
40 8
41 14
42 8
43 8
44 8
45 17
46 7
47 19
48 12
49 24
50 26
51 22
52 14
53 27
54 60
55 4
56 2
57 1
58 9
59 5
60 6
61 7
62 12
63 2
64 11
65 14
66 6
67 21
68 14
69 1
70 6
71 21
72 11
73 14
74 28
75 12
76 11
77 30
78 22
79 14
80 31
81 18
82 16
83 7
84 38
85 8
86 31
87 29
88 12
89 18

<precedence relations>
1,2
2,3
3,4
4,5
4,6
4,7
4,8
4,9
5,10
6,11
7,12
8,18
9,18
10,14
11,12
12,13
13,14
14,15
14,16
15,17
16,54
17,18
18,19
18,20
19,22
20,21
20,28
21,54
22,23
23,24
24,25
25,26
25,27
25,29
26,37
27,33
28,29
29,31
30,54
31,32
32,33
33,34
34,35
35,36
35,37
36,38
37,38
38,39
39,40
39,41
39,42
39,43
40,44
41,53
42,53
43,45
44,52
45,46
46,47
47,48
47,49
49,50
50,51
51,52
52,53
53,68
53,69
53,70
53,71
54,55
55,56
56,57
57,58
57,59
57,60
57,61
57,62
57,63
57,64
57,65
57,66
58,67
59,67
60,67
61,67
62,67
63,67
64,67
65,67
66,67
67,73
68,72
69,72
70,72
71,73
72,78
72,80
73,74
74,75
74,76
75,77
76,81
77,78
78,79
79,81
80,81
81,82
81,84
81,85
82,83
83,86
84,86
85,86
86,87
87,88
87,89

<setup times forward>
1,30:2
2,30:2
3,30:2
4,5:7
4,7:7
4,8:3
4,9:3
4,30:2
5,6:7
5,8:4
5,9:10
5,10:10
5,30:5
6,5:7
6,7:7
6,8:3
6,9:3
6,10:3
6,11:7
6,30:2
7,6:7
7,8:4
7,9:10
7,10:10
7,30:5
8,5:4
8,6:3
8,7:4
8,9:6
8,10:6
8,11:4
8,12:4
8,13:4
8,14:6
8,15:6
8,16:4
8,30:1
9,5:10
9,6:3
9,7:10
9,8:6
9,11:10
9,12:10
9,13:10
9,16:2
9,17:6
9,18:6
9,30:5
10,6:3
10,7:10
10,8:6
10,11:10
10,12:10
10,13:10
10,30:5
11,8:4
11,9:10
11,10:10
11,30:5
12,8:4
12,9:10
12,10:10
12,30:5
13,8:4
13,9:10
13,10:10
13,14:10
13,30:5
14,8:6
14,16:2
14,30:5
15,8:6
15,16:2
15,17:6
15,30:5
16,8:4
16,9:2
16,15:2
16,17:4
16,18:4
16,19:3
16,20:3
16,21:3
16,22:3
16,23:3
16,24:3
16,25:3
16,26:2
16,27:3
16,28:1
16,29:5
16,30:3
16,31:5
16,32:5
16,33:5
16,34:5
16,35:2
16,36:7
16,37:2
16,38:7
16,40:8
16,41:6
16,42:6
16,44:8
16,46:3
16,47:6
16,48:5
16,49:6
16,50:7
16,51:7
16,52:8
16,53:8
16,54:3
16,68:1
16,69:3
16,70:3
16,71:8
16,72:3
16,80:3
17,9:6
17,16:4
17,30:1
18,16:4
18,19:1
18,20:1
18,30:1
19,16:3
19,28:2
19,58:10
19,60:11
19,61:11
19,62:11
19,63:11
19,64:11
19,65:3
19,66:11
19,67:10
20,16:3
20,25:6
20,26:5
20,27:6
20,28:2
21,16:3
21,25:6
21,26:5
21,27:6
21,28:2
21,29:8
21,31:8
21,32:8
21,33:2
21,34:2
21,35:5
21,36:10
21,37:5
21,38:10
21,39:3
21,40:5
21,41:3
21,42:3
21,43:3
21,44:5
21,45:3
21,47:3
21,48:8
21,49:3
21,50:10
21,51:10
21,52:5
21,53:5
21,68:4
21,71:5
22,16:3
22,28:2
22,58:10
22,60:11
22,61:11
22,62:11
22,63:11
22,64:11
22,65:3
22,66:11
22,67:10
23,16:3
23,28:2
23,58:10
23,60:11
23,61:11
23,62:11
23,63:11
23,64:11
23,65:3
23,66:11
23,67:10
24,16:3
24,25:6
24,28:2
24,58:10
24,60:11
24,61:11
24,62:11
24,63:11
24,64:11
24,65:3
24,66:11
24,67:10
25,16:3
25,20:6
25,21:6
25,26:1
25,28:4
25,29:2
25,30:6
25,54:6
25,55:6
25,56:6
25,57:6
25,58:4
25,59:6
25,60:5
25,61:5
25,62:5
25,63:5
25,64:5
25,65:9
25,66:5
25,67:4
26,16:2
26,20:5
26,21:5
26,27:1
26,28:3
26,29:3
26,30:5
26,31:3
26,32:3
26,33:7
26,34:7
26,36:5
26,54:5
26,55:5
26,56:5
26,57:5
26,58:5
26,59:5
26,60:6
26,61:6
26,62:6
26,63:6
26,64:6
26,65:8
26,66:6
26,67:5
27,16:3
27,20:6
27,21:6
27,26:1
27,28:4
27,29:2
27,30:6
27,31:2
27,32:2
27,33:8
27,54:6
27,55:6
27,56:6
27,57:6
27,58:4
27,59:6
27,60:5
27,61:5
27,62:5
27,63:5
27,64:5
27,65:9
27,66:5
27,67:4
28,16:1
28,19:2
28,21:2
28,22:2
28,23:2
28,24:2
28,25:4
28,26:3
28,27:4
28,29:6
28,30:2
28,54:2
28,55:2
28,56:2
28,57:2
28,58:8
28,59:2
28,60:9
28,61:9
28,62:9
28,63:9
28,64:9
28,65:5
28,66:9
28,67:8
29,16:5
29,21:8
29,26:3
29,27:2
29,30:8
29,54:8
29,55:8
29,56:8
29,57:8
29,58:2
29,59:8
29,60:3
29,61:3
29,62:3
29,63:3
29,64:3
29,65:11
29,66:3
29,67:2
30,1:2
30,2:2
30,3:2
30,4:2
30,5:5
30,6:2
30,7:5
30,8:1
30,9:5
30,10:5
30,11:5
30,12:5
30,13:5
30,14:5
30,15:5
30,16:3
30,17:1
30,18:1
30,25:6
30,26:5
30,27:6
30,28:2
30,29:8
30,31:8
30,32:8
30,33:2
30,34:2
30,35:5
30,36:10
30,37:5
30,38:10
30,39:3
30,40:5
30,41:3
30,42:3
30,43:3
30,44:5
30,45:3
30,47:3
30,48:8
30,49:3
30,50:10
30,51:10
30,52:5
30,53:5
30,68:4
30,71:5
31,16:5
31,21:8
31,26:3
31,27:2
31,30:8
31,54:8
31,55:8
31,56:8
31,57:8
31,58:2
31,59:8
31,60:3
31,61:3
31,62:3
31,63:3
31,64:3
31,65:11
31,66:3
31,67:2
32,16:5
32,21:8
32,26:3
32,27:2
32,30:8
32,33:10
32,54:8
32,55:8
32,56:8
32,57:8
32,58:2
32,59:8
32,60:3
32,61:3
32,62:3
32,63:3
32,64:3
32,65:11
32,66:3
32,67:2
33,16:5
33,21:2
33,26:7
33,30:2
33,54:2
33,55:2
33,56:2
33,57:2
33,58:12
33,59:2
33,60:13
33,61:13
33,62:13
33,63:13
33,64:13
33,65:1
33,66:13
33,67:12
34,16:5
34,21:2
34,26:7
34,30:2
34,35:7
34,54:2
34,55:2
34,56:2
34,57:2
34,58:12
34,59:2
34,60:13
34,61:13
34,62:13
34,63:13
34,64:13
34,65:1
34,66:13
34,67:12
35,16:2
35,21:5
35,30:5
35,36:5
35,54:5
35,55:5
35,56:5
35,57:5
35,58:5
35,59:5
35,60:6
35,61:6
35,62:6
35,63:6
35,64:6
35,65:8
35,66:6
35,67:5
36,16:7
36,21:10
36,26:5
36,30:10
36,37:5
36,54:10
36,55:10
36,56:10
36,57:10
36,59:10
36,60:1
36,61:1
36,62:1
36,63:1
36,64:1
36,65:13
36,66:1
37,16:2
37,21:5
37,30:5
37,36:5
37,38:5
37,54:5
37,55:5
37,56:5
37,57:5
37,58:5
37,59:5
37,60:6
37,61:6
37,62:6
37,63:6
37,64:6
37,65:8
37,66:6
37,67:5
38,16:7
38,21:10
38,30:10
38,39:7
38,54:10
38,55:10
38,56:10
38,57:10
38,59:10
38,60:1
38,61:1
38,62:1
38,63:1
38,64:1
38,65:13
38,66:1
39,21:3
39,30:3
39,40:8
39,41:6
39,42:6
39,54:3
39,55:3
39,56:3
39,57:3
39,58:7
39,59:3
39,60:8
39,61:8
39,62:8
39,63:8
39,64:8
39,65:6
39,66:8
39,67:7
40,16:8
40,21:5
40,30:5
40,41:2
40,42:2
40,43:8
40,45:8
40,46:5
40,47:2
40,48:13
40,49:2
40,50:15
40,51:15
40,54:5
40,55:5
40,56:5
40,57:5
40,58:15
40,59:5
40,60:16
40,61:16
40,62:16
40,63:16
40,64:16
40,65:2
40,66:16
40,67:15
41,16:6
41,21:3
41,30:3
41,40:2
41,43:6
41,44:2
41,45:6
41,46:3
41,48:11
41,50:13
41,51:13
41,52:2
41,53:2
41,54:3
41,55:3
41,56:3
41,57:3
41,58:13
41,59:3
41,60:14
41,61:14
41,62:14
41,63:14
41,64:14
41,66:14
41,67:13
42,16:6
42,21:3
42,30:3
42,40:2
42,43:6
42,44:2
42,45:6
42,46:3
42,48:11
42,50:13
42,51:13
42,52:2
42,53:2
42,54:3
42,55:3
42,56:3
42,57:3
42,58:13
42,59:3
42,60:14
42,61:14
42,62:14
42,63:14
42,64:14
42,66:14
42,67:13
43,21:3
43,30:3
43,40:8
43,41:6
43,42:6
43,44:8
43,54:3
43,55:3
43,56:3
43,57:3
43,58:7
43,59:3
43,60:8
43,61:8
43,62:8
43,63:8
43,64:8
43,65:6
43,66:8
43,67:7
44,16:8
44,21:5
44,30:5
44,41:2
44,42:2
44,43:8
44,45:8
44,46:5
44,47:2
44,48:13
44,49:2
44,50:15
44,51:15
44,54:5
44,55:5
44,56:5
44,57:5
44,58:15
44,59:5
44,60:16
44,61:16
44,62:16
44,63:16
44,64:16
44,65:2
44,66:16
44,67:15
45,21:3
45,30:3
45,40:8
45,41:6
45,42:6
45,44:8
45,46:3
45,54:3
45,55:3
45,56:3
45,57:3
45,58:7
45,59:3
45,60:8
45,61:8
45,62:8
45,63:8
45,64:8
45,65:6
45,66:8
45,67:7
46,16:3
46,40:5
46,41:3
46,42:3
46,44:5
46,47:3
46,58:10
46,60:11
46,61:11
46,62:11
46,63:11
46,64:11
46,65:3
46,66:11
46,67:10
47,16:6
47,21:3
47,30:3
47,40:2
47,44:2
47,48:11
47,54:3
47,55:3
47,56:3
47,57:3
47,58:13
47,59:3
47,60:14
47,61:14
47,62:14
47,63:14
47,64:14
47,66:14
47,67:13
48,16:5
48,21:8
48,30:8
48,40:13
48,41:11
48,42:11
48,44:13
48,49:11
48,50:2
48,51:2
48,52:13
48,53:13
48,54:8
48,55:8
48,56:8
48,57:8
48,58:2
48,59:8
48,60:3
48,61:3
48,62:3
48,63:3
48,64:3
48,65:11
48,66:3
48,67:2
48,68:4
48,69:8
48,70:8
48,71:13
48,72:8
48,73:4
48,74:4
48,75:4
48,76:4
48,77:8
48,78:11
48,79:11
48,80:8
48,81:11
48,82:11
48,83:11
48,84:11
48,85:11
48,86:11
49,16:6
49,21:3
49,30:3
49,40:2
49,44:2
49,48:11
49,50:13
49,54:3
49,55:3
49,56:3
49,57:3
49,58:13
49,59:3
49,60:14
49,61:14
49,62:14
49,63:14
49,64:14
49,66:14
49,67:13
50,16:7
50,21:10
50,30:10
50,40:15
50,41:13
50,42:13
50,44:15
50,48:2
50,54:10
50,55:10
50,56:10
50,57:10
50,59:10
50,60:1
50,61:1
50,62:1
50,63:1
50,64:1
50,65:13
50,66:1
51,16:7
51,21:10
51,30:10
51,40:15
51,41:13
51,42:13
51,44:15
51,48:2
51,52:15
51,54:10
51,55:10
51,56:10
51,57:10
51,59:10
51,60:1
51,61:1
51,62:1
51,63:1
51,64:1
51,65:13
51,66:1
52,16:8
52,21:5
52,30:5
52,41:2
52,42:2
52,48:13
52,54:5
52,55:5
52,56:5
52,57:5
52,58:15
52,59:5
52,60:16
52,61:16
52,62:16
52,63:16
52,64:16
52,65:2
52,66:16
52,67:15
53,16:8
53,21:5
53,30:5
53,48:13
53,54:5
53,55:5
53,56:5
53,57:5
53,58:15
53,59:5
53,60:16
53,61:16
53,62:16
53,63:16
53,64:16
53,65:2
53,66:16
53,67:15
53,68:9
53,69:5
53,70:5
54,25:6
54,26:5
54,27:6
54,28:2
54,29:8
54,31:8
54,32:8
54,33:2
54,34:2
54,35:5
54,36:10
54,37:5
54,38:10
54,39:3
54,40:5
54,41:3
54,42:3
54,43:3
54,44:5
54,45:3
54,47:3
54,48:8
54,49:3
54,50:10
54,51:10
54,52:5
54,53:5
54,68:4
54,71:5
55,25:6
55,26:5
55,27:6
55,28:2
55,29:8
55,31:8
55,32:8
55,33:2
55,34:2
55,35:5
55,36:10
55,37:5
55,38:10
55,39:3
55,40:5
55,41:3
55,42:3
55,43:3
55,44:5
55,45:3
55,47:3
55,48:8
55,49:3
55,50:10
55,51:10
55,52:5
55,53:5
55,68:4
55,71:5
56,25:6
56,26:5
56,27:6
56,28:2
56,29:8
56,31:8
56,32:8
56,33:2
56,34:2
56,35:5
56,36:10
56,37:5
56,38:10
56,39:3
56,40:5
56,41:3
56,42:3
56,43:3
56,44:5
56,45:3
56,47:3
56,48:8
56,49:3
56,50:10
56,51:10
56,52:5
56,53:5
56,68:4
56,71:5
57,25:6
57,26:5
57,27:6
57,28:2
57,29:8
57,31:8
57,32:8
57,33:2
57,34:2
57,35:5
57,36:10
57,37:5
57,38:10
57,39:3
57,40:5
57,41:3
57,42:3
57,43:3
57,44:5
57,45:3
57,47:3
57,48:8
57,49:3
57,50:10
57,51:10
57,52:5
57,53:5
57,58:10
57,60:11
57,61:11
57,62:11
57,63:11
57,64:11
57,65:3
57,66:11
57,68:4
57,71:5
58,19:10
58,22:10
58,23:10
58,24:10
58,25:4
58,26:5
58,27:4
58,28:8
58,29:2
58,31:2
58,32:2
58,33:12
58,34:12
58,35:5
58,37:5
58,39:7
58,40:15
58,41:13
58,42:13
58,43:7
58,44:15
58,45:7
58,46:10
58,47:13
58,48:2
58,49:13
58,52:15
58,53:15
58,59:10
58,60:1
58,61:1
58,62:1
58,63:1
58,64:1
58,65:13
58,66:1
58,68:6
58,69:10
58,70:10
58,71:15
58,72:10
58,80:10
59,25:6
59,26:5
59,27:6
59,28:2
59,29:8
59,31:8
59,32:8
59,33:2
59,34:2
59,35:5
59,36:10
59,37:5
59,38:10
59,39:3
59,40:5
59,41:3
59,42:3
59,43:3
59,44:5
59,45:3
59,47:3
59,48:8
59,49:3
59,50:10
59,51:10
59,52:5
59,53:5
59,58:10
59,60:11
59,61:11
59,62:11
59,63:11
59,64:11
59,65:3
59,66:11
59,67:10
59,68:4
59,71:5
60,19:11
60,22:11
60,23:11
60,24:11
60,25:5
60,26:6
60,27:5
60,28:9
60,29:3
60,31:3
60,32:3
60,33:13
60,34:13
60,35:6
60,36:1
60,37:6
60,38:1
60,39:8
60,40:16
60,41:14
60,42:14
60,43:8
60,44:16
60,45:8
60,46:11
60,47:14
60,48:3
60,49:14
60,50:1
60,51:1
60,52:16
60,53:16
60,58:1
60,59:11
60,65:14
60,67:1
60,68:7
60,69:11
60,70:11
60,71:16
60,72:11
60,80:11
61,19:11
61,22:11
61,23:11
61,24:11
61,25:5
61,26:6
61,27:5
61,28:9
61,29:3
61,31:3
61,32:3
61,33:13
61,34:13
61,35:6
61,36:1
61,37:6
61,38:1
61,39:8
61,40:16
61,41:14
61,42:14
61,43:8
61,44:16
61,45:8
61,46:11
61,47:14
61,48:3
61,49:14
61,50:1
61,51:1
61,52:16
61,53:16
61,58:1
61,59:11
61,65:14
61,67:1
61,68:7
61,69:11
61,70:11
61,71:16
61,72:11
61,80:11
62,19:11
62,22:11
62,23:11
62,24:11
62,25:5
62,26:6
62,27:5
62,28:9
62,29:3
62,31:3
62,32:3
62,33:13
62,34:13
62,35:6
62,36:1
62,37:6
62,38:1
62,39:8
62,40:16
62,41:14
62,42:14
62,43:8
62,44:16
62,45:8
62,46:11
62,47:14
62,48:3
62,49:14
62,50:1
62,51:1
62,52:16
62,53:16
62,58:1
62,59:11
62,65:14
62,67:1
62,68:7
62,69:11
62,70:11
62,71:16
62,72:11
62,80:11
63,19:11
63,22:11
63,23:11
63,24:11
63,25:5
63,26:6
63,27:5
63,28:9
63,29:3
63,31:3
63,32:3
63,33:13
63,34:13
63,35:6
63,36:1
63,37:6
63,38:1
63,39:8
63,40:16
63,41:14
63,42:14
63,43:8
63,44:16
63,45:8
63,46:11
63,47:14
63,48:3
63,49:14
63,50:1
63,51:1
63,52:16
63,53:16
63,58:1
63,59:11
63,65:14
63,67:1
63,68:7
63,69:11
63,70:11
63,71:16
63,72:11
63,80:11
64,19:11
64,22:11
64,23:11
64,24:11
64,25:5
64,26:6
64,27:5
64,28:9
64,29:3
64,31:3
64,32:3
64,33:13
64,34:13
64,35:6
64,36:1
64,37:6
64,38:1
64,39:8
64,40:16
64,41:14
64,42:14
64,43:8
64,44:16
64,45:8
64,46:11
64,47:14
64,48:3
64,49:14
64,50:1
64,51:1
64,52:16
64,53:16
64,58:1
64,59:11
64,65:14
64,67:1
64,68:7
64,69:11
64,70:11
64,71:16
64,72:11
64,80:11
65,19:3
65,22:3
65,23:3
65,24:3
65,25:9
65,26:8
65,27:9
65,28:5
65,29:11
65,31:11
65,32:11
65,33:1
65,34:1
65,35:8
65,36:13
65,37:8
65,38:13
65,39:6
65,40:2
65,43:6
65,44:2
65,45:6
65,46:3
65,48:11
65,50:13
65,51:13
65,52:2
65,53:2
65,58:13
65,59:3
65,60:14
65,61:14
65,62:14
65,63:14
65,64:14
65,66:14
65,67:13
65,68:7
65,69:3
65,70:3
65,71:2
65,72:3
65,80:3
66,19:11
66,22:11
66,23:11
66,24:11
66,25:5
66,26:6
66,27:5
66,28:9
66,29:3
66,31:3
66,32:3
66,33:13
66,34:13
66,35:6
66,36:1
66,37:6
66,38:1
66,39:8
66,40:16
66,41:14
66,42:14
66,43:8
66,44:16
66,45:8
66,46:11
66,47:14
66,48:3
66,49:14
66,50:1
66,51:1
66,52:16
66,53:16
66,58:1
66,59:11
66,65:14
66,67:1
66,68:7
66,69:11
66,70:11
66,71:16
66,72:11
66,80:11
67,19:10
67,22:10
67,23:10
67,24:10
67,25:4
67,26:5
67,27:4
67,28:8
67,29:2
67,31:2
67,32:2
67,33:12
67,34:12
67,35:5
67,37:5
67,39:7
67,40:15
67,41:13
67,42:13
67,43:7
67,44:15
67,45:7
67,46:10
67,47:13
67,48:2
67,49:13
67,52:15
67,53:15
67,68:6
67,69:10
67,70:10
67,71:15
67,72:10
67,73:6
67,80:10
68,16:1
68,21:4
68,30:4
68,48:4
68,54:4
68,55:4
68,56:4
68,57:4
68,58:6
68,59:4
68,60:7
68,61:7
68,62:7
68,63:7
68,64:7
68,65:7
68,66:7
68,67:6
68,69:4
68,70:4
68,71:9
68,72:4
68,77:4
69,16:3
69,48:8
69,58:10
69,60:11
69,61:11
69,62:11
69,63:11
69,64:11
69,65:3
69,66:11
69,67:10
69,68:4
69,71:5
69,73:4
69,74:4
69,75:4
69,76:4
70,16:3
70,48:8
70,58:10
70,60:11
70,61:11
70,62:11
70,63:11
70,64:11
70,65:3
70,66:11
70,67:10
70,68:4
70,71:5
70,73:4
70,74:4
70,75:4
70,76:4
71,16:8
71,21:5
71,30:5
71,48:13
71,54:5
71,55:5
71,56:5
71,57:5
71,58:15
71,59:5
71,60:16
71,61:16
71,62:16
71,63:16
71,64:16
71,65:2
71,66:16
71,67:15
71,68:9
71,69:5
71,70:5
71,72:5
71,73:9
71,80:5
72,16:3
72,48:8
72,58:10
72,60:11
72,61:11
72,62:11
72,63:11
72,64:11
72,65:3
72,66:11
72,67:10
72,71:5
72,73:4
72,74:4
72,75:4
72,76:4
72,78:3
73,48:4
73,69:4
73,70:4
73,72:4
73,80:4
74,48:4
74,69:4
74,70:4
74,72:4
74,80:4
75,48:4
75,69:4
75,70:4
75,72:4
75,77:4
75,80:4
76,48:4
76,69:4
76,70:4
76,72:4
76,77:4
76,78:7
76,79:7
76,80:4
76,81:7
77,48:8
77,68:4
77,76:4
77,78:3
78,48:11
78,76:7
78,80:3
79,48:11
79,76:7
79,80:3
80,16:3
80,48:8
80,58:10
80,60:11
80,61:11
80,62:11
80,63:11
80,64:11
80,65:3
80,66:11
80,67:10
80,71:5
80,73:4
80,74:4
80,75:4
80,76:4
80,78:3
80,79:3
80,81:3
81,48:11
82,48:11
83,48:11
84,48:11
85,48:11
86,48:11
86,87:11

<setup times backward>
5,1:7
5,2:7
5,3:7
5,4:7
5,6:7
5,8:4
5,9:10
5,30:5
6,9:3
6,10:3
7,1:7
7,2:7
7,3:7
7,4:7
7,6:7
7,8:4
7,9:10
7,10:10
7,30:5
8,1:3
8,2:3
8,3:3
8,4:3
8,6:3
8,9:6
8,10:6
8,14:6
8,15:6
8,16:4
8,30:1
11,1:7
11,2:7
11,3:7
11,4:7
11,6:7
11,8:4
11,9:10
11,10:10
11,30:5
12,1:7
12,2:7
12,3:7
12,4:7
12,6:7
12,8:4
12,9:10
12,10:10
12,30:5
13,1:7
13,2:7
13,3:7
13,4:7
13,6:7
13,8:4
13,9:10
13,10:10
13,30:5
16,9:2
16,10:2
16,14:2
16,15:2
16,25:3
16,26:2
16,27:3
16,29:5
16,31:5
16,32:5
16,35:2
16,36:7
16,37:2
16,38:7
16,48:5
16,50:7
16,51:7
16,68:1
17,1:3
17,2:3
17,3:3
17,4:3
17,6:3
17,9:6
17,10:6
17,14:6
17,15:6
17,16:4
17,30:1
18,1:3
18,2:3
18,3:3
18,4:3
18,6:3
18,9:6
18,10:6
18,14:6
18,15:6
18,16:4
18,30:1
19,1:2
19,2:2
19,3:2
19,4:2
19,6:2
19,9:5
19,10:5
19,14:5
19,15:5
19,16:3
19,28:2
19,58:10
19,60:11
19,61:11
19,62:11
19,63:11
19,64:11
19,66:11
19,67:10
20,1:2
20,2:2
20,3:2
20,4:2
20,6:2
20,9:5
20,10:5
20,14:5
20,15:5
20,16:3
20,25:6
20,26:5
20,27:6
21,1:2
21,2:2
21,3:2
21,4:2
21,6:2
21,9:5
21,10:5
21,14:5
21,15:5
21,16:3
21,25:6
21,26:5
21,27:6
21,28:2
21,29:8
21,31:8
21,32:8
21,35:5
21,36:10
21,37:5
21,38:10
21,39:3
21,43:3
21,45:3
21,48:8
21,50:10
21,51:10
21,68:4
22,1:2
22,2:2
22,3:2
22,4:2
22,6:2
22,9:5
22,10:5
22,14:5
22,15:5
22,16:3
22,28:2
22,58:10
22,60:11
22,61:11
22,62:11
22,63:11
22,64:11
22,66:11
22,67:10
23,1:2
23,2:2
23,3:2
23,4:2
23,6:2
23,9:5
23,10:5
23,14:5
23,15:5
23,16:3
23,28:2
23,58:10
23,60:11
23,61:11
23,62:11
23,63:11
23,64:11
23,66:11
23,67:10
24,1:2
24,2:2
24,3:2
24,4:2
24,6:2
24,9:5
24,10:5
24,14:5
24,15:5
24,16:3
24,28:2
24,58:10
24,60:11
24,61:11
24,62:11
24,63:11
24,64:11
24,66:11
24,67:10
25,58:4
25,60:5
25,61:5
25,62:5
25,63:5
25,64:5
25,66:5
25,67:4
26,25:1
26,27:1
26,29:3
26,31:3
26,32:3
26,36:5
26,58:5
26,60:6
26,61:6
26,62:6
26,63:6
26,64:6
26,66:6
26,67:5
27,29:2
27,31:2
27,32:2
27,58:4
27,60:5
27,61:5
27,62:5
27,63:5
27,64:5
27,66:5
27,67:4
28,9:3
28,10:3
28,14:3
28,15:3
28,16:1
28,25:4
28,26:3
28,27:4
28,58:8
28,60:9
28,61:9
28,62:9
28,63:9
28,64:9
28,66:9
28,67:8
29,58:2
29,60:3
29,61:3
29,62:3
29,63:3
29,64:3
29,66:3
29,67:2
30,1:2
30,2:2
30,3:2
30,4:2
30,6:2
30,9:5
30,10:5
30,14:5
30,15:5
30,16:3
30,25:6
30,26:5
30,27:6
30,28:2
30,29:8
30,31:8
30,32:8
30,35:5
30,36:10
30,37:5
30,38:10
30,39:3
30,43:3
30,45:3
30,48:8
30,50:10
30,51:10
30,68:4
31,58:2
31,60:3
31,61:3
31,62:3
31,63:3
31,64:3
31,66:3
31,67:2
32,58:2
32,60:3
32,61:3
32,62:3
32,63:3
32,64:3
32,66:3
32,67:2
33,1:4
33,2:4
33,3:4
33,4:4
33,6:4
33,8:1
33,9:7
33,10:7
33,14:7
33,15:7
33,16:5
33,17:1
33,18:1
33,19:2
33,20:2
33,21:2
33,22:2
33,23:2
33,24:2
33,25:8
33,26:7
33,27:8
33,28:4
33,29:10
33,30:2
33,31:10
33,32:10
33,54:2
33,55:2
33,56:2
33,57:2
33,58:12
33,59:2
33,60:13
33,61:13
33,62:13
33,63:13
33,64:13
33,66:13
33,67:12
34,1:4
34,2:4
34,3:4
34,4:4
34,6:4
34,8:1
34,9:7
34,10:7
34,14:7
34,15:7
34,16:5
34,17:1
34,18:1
34,19:2
34,20:2
34,21:2
34,22:2
34,23:2
34,24:2
34,25:8
34,26:7
34,27:8
34,28:4
34,29:10
34,30:2
34,31:10
34,32:10
34,54:2
34,55:2
34,56:2
34,57:2
34,58:12
34,59:2
34,60:13
34,61:13
34,62:13
34,63:13
34,64:13
34,66:13
34,67:12
35,25:1
35,27:1
35,29:3
35,31:3
35,32:3
35,58:5
35,60:6
35,61:6
35,62:6
35,63:6
35,64:6
35,66:6
35,67:5
36,60:1
36,61:1
36,62:1
36,63:1
36,64:1
36,66:1
37,25:1
37,27:1
37,29:3
37,31:3
37,32:3
37,36:5
37,58:5
37,60:6
37,61:6
37,62:6
37,63:6
37,64:6
37,66:6
37,67:5
38,60:1
38,61:1
38,62:1
38,63:1
38,64:1
38,66:1
39,9:2
39,10:2
39,14:2
39,15:2
39,25:3
39,26:2
39,27:3
39,29:5
39,31:5
39,32:5
39,35:2
39,36:7
39,37:2
39,38:7
39,58:7
39,60:8
39,61:8
39,62:8
39,63:8
39,64:8
39,66:8
39,67:7
40,1:7
40,2:7
40,3:7
40,4:7
40,6:7
40,8:4
40,9:10
40,10:10
40,14:10
40,15:10
40,16:8
40,17:4
40,18:4
40,19:5
40,20:5
40,21:5
40,22:5
40,23:5
40,24:5
40,25:11
40,26:10
40,27:11
40,28:7
40,29:13
40,30:5
40,31:13
40,32:13
40,33:3
40,34:3
40,35:10
40,36:15
40,37:10
40,38:15
40,39:8
40,41:2
40,42:2
40,43:8
40,45:8
40,46:5
40,47:2
40,48:13
40,49:2
40,50:15
40,51:15
40,54:5
40,55:5
40,56:5
40,57:5
40,58:15
40,59:5
40,60:16
40,61:16
40,62:16
40,63:16
40,64:16
40,65:2
40,66:16
40,67:15
41,1:5
41,2:5
41,3:5
41,4:5
41,6:5
41,8:2
41,9:8
41,10:8
41,14:8
41,15:8
41,16:6
41,17:2
41,18:2
41,19:3
41,20:3
41,21:3
41,22:3
41,23:3
41,24:3
41,25:9
41,26:8
41,27:9
41,28:5
41,29:11
41,30:3
41,31:11
41,32:11
41,33:1
41,34:1
41,35:8
41,36:13
41,37:8
41,38:13
41,39:6
41,43:6
41,45:6
41,46:3
41,48:11
41,50:13
41,51:13
41,54:3
41,55:3
41,56:3
41,57:3
41,58:13
41,59:3
41,60:14
41,61:14
41,62:14
41,63:14
41,64:14
41,66:14
41,67:13
42,1:5
42,2:5
42,3:5
42,4:5
42,6:5
42,8:2
42,9:8
42,10:8
42,14:8
42,15:8
42,16:6
42,17:2
42,18:2
42,19:3
42,20:3
42,21:3
42,22:3
42,23:3
42,24:3
42,25:9
42,26:8
42,27:9
42,28:5
42,29:11
42,30:3
42,31:11
42,32:11
42,33:1
42,34:1
42,35:8
42,36:13
42,37:8
42,38:13
42,39:6
42,43:6
42,45:6
42,46:3
42,48:11
42,50:13
42,51:13
42,54:3
42,55:3
42,56:3
42,57:3
42,58:13
42,59:3
42,60:14
42,61:14
42,62:14
42,63:14
42,64:14
42,66:14
42,67:13
43,9:2
43,10:2
43,14:2
43,15:2
43,25:3
43,26:2
43,27:3
43,29:5
43,31:5
43,32:5
43,35:2
43,36:7
43,37:2
43,38:7
43,58:7
43,60:8
43,61:8
43,62:8
43,63:8
43,64:8
43,66:8
43,67:7
44,1:7
44,2:7
44,3:7
44,4:7
44,6:7
44,8:4
44,9:10
44,10:10
44,14:10
44,15:10
44,16:8
44,17:4
44,18:4
44,19:5
44,20:5
44,21:5
44,22:5
44,23:5
44,24:5
44,25:11
44,26:10
44,27:11
44,28:7
44,29:13
44,30:5
44,31:13
44,32:13
44,33:3
44,34:3
44,35:10
44,36:15
44,37:10
44,38:15
44,39:8
44,41:2
44,42:2
44,43:8
44,45:8
44,46:5
44,47:2
44,48:13
44,49:2
44,50:15
44,51:15
44,54:5
44,55:5
44,56:5
44,57:5
44,58:15
44,59:5
44,60:16
44,61:16
44,62:16
44,63:16
44,64:16
44,65:2
44,66:16
44,67:15
45,9:2
45,10:2
45,14:2
45,15:2
45,25:3
45,26:2
45,27:3
45,29:5
45,31:5
45,32:5
45,35:2
45,36:7
45,37:2
45,38:7
45,58:7
45,60:8
45,61:8
45,62:8
45,63:8
45,64:8
45,66:8
45,67:7
46,1:2
46,2:2
46,3:2
46,4:2
46,6:2
46,9:5
46,10:5
46,14:5
46,15:5
46,16:3
46,25:6
46,26:5
46,27:6
46,28:2
46,29:8
46,31:8
46,32:8
46,35:5
46,36:10
46,37:5
46,38:10
46,39:3
46,43:3
46,45:3
46,58:10
46,60:11
46,61:11
46,62:11
46,63:11
46,64:11
46,66:11
46,67:10
47,1:5
47,2:5
47,3:5
47,4:5
47,6:5
47,8:2
47,9:8
47,10:8
47,14:8
47,15:8
47,16:6
47,17:2
47,18:2
47,19:3
47,20:3
47,21:3
47,22:3
47,23:3
47,24:3
47,25:9
47,26:8
47,27:9
47,28:5
47,29:11
47,30:3
47,31:11
47,32:11
47,33:1
47,34:1
47,35:8
47,36:13
47,37:8
47,38:13
47,39:6
47,43:6
47,45:6
47,46:3
47,54:3
47,55:3
47,56:3
47,57:3
47,58:13
47,59:3
47,60:14
47,61:14
47,62:14
47,63:14
47,64:14
47,66:14
47,67:13
48,36:2
48,38:2
48,50:2
48,51:2
48,58:2
48,60:3
48,61:3
48,62:3
48,63:3
48,64:3
48,66:3
48,67:2
49,1:5
49,2:5
49,3:5
49,4:5
49,6:5
49,8:2
49,9:8
49,10:8
49,14:8
49,15:8
49,16:6
49,17:2
49,18:2
49,19:3
49,20:3
49,21:3
49,22:3
49,23:3
49,24:3
49,25:9
49,26:8
49,27:9
49,28:5
49,29:11
49,30:3
49,31:11
49,32:11
49,33:1
49,34:1
49,35:8
49,36:13
49,37:8
49,38:13
49,39:6
49,43:6
49,45:6
49,46:3
49,48:11
49,54:3
49,55:3
49,56:3
49,57:3
49,58:13
49,59:3
49,60:14
49,61:14
49,62:14
49,63:14
49,64:14
49,66:14
49,67:13
50,60:1
50,61:1
50,62:1
50,63:1
50,64:1
50,66:1
51,60:1
51,61:1
51,62:1
51,63:1
51,64:1
51,66:1
52,1:7
52,2:7
52,3:7
52,4:7
52,6:7
52,8:4
52,9:10
52,10:10
52,14:10
52,15:10
52,16:8
52,17:4
52,18:4
52,19:5
52,20:5
52,21:5
52,22:5
52,23:5
52,24:5
52,25:11
52,26:10
52,27:11
52,28:7
52,29:13
52,30:5
52,31:13
52,32:13
52,33:3
52,34:3
52,35:10
52,36:15
52,37:10
52,38:15
52,39:8
52,41:2
52,42:2
52,43:8
52,45:8
52,46:5
52,47:2
52,48:13
52,49:2
52,50:15
52,51:15
52,54:5
52,55:5
52,56:5
52,57:5
52,58:15
52,59:5
52,60:16
52,61:16
52,62:16
52,63:16
52,64:16
52,65:2
52,66:16
52,67:15
53,1:7
53,2:7
53,3:7
53,4:7
53,6:7
53,8:4
53,9:10
53,10:10
53,14:10
53,15:10
53,16:8
53,17:4
53,18:4
53,19:5
53,20:5
53,21:5
53,22:5
53,23:5
53,24:5
53,25:11
53,26:10
53,27:11
53,28:7
53,29:13
53,30:5
53,31:13
53,32:13
53,33:3
53,34:3
53,35:10
53,36:15
53,37:10
53,38:15
53,39:8
53,41:2
53,42:2
53,43:8
53,45:8
53,46:5
53,47:2
53,48:13
53,49:2
53,50:15
53,51:15
53,54:5
53,55:5
53,56:5
53,57:5
53,58:15
53,59:5
53,60:16
53,61:16
53,62:16
53,63:16
53,64:16
53,65:2
53,66:16
53,67:15
54,1:2
54,2:2
54,3:2
54,4:2
54,6:2
54,9:5
54,10:5
54,14:5
54,15:5
54,16:3
54,25:6
54,26:5
54,27:6
54,28:2
54,29:8
54,31:8
54,32:8
54,35:5
54,36:10
54,37:5
54,38:10
54,39:3
54,43:3
54,45:3
54,48:8
54,50:10
54,51:10
54,68:4
55,1:2
55,2:2
55,3:2
55,4:2
55,6:2
55,9:5
55,10:5
55,14:5
55,15:5
55,16:3
55,25:6
55,26:5
55,27:6
55,28:2
55,29:8
55,31:8
55,32:8
55,35:5
55,36:10
55,37:5
55,38:10
55,39:3
55,43:3
55,45:3
55,48:8
55,50:10
55,51:10
55,68:4
56,1:2
56,2:2
56,3:2
56,4:2
56,6:2
56,9:5
56,10:5
56,14:5
56,15:5
56,16:3
56,25:6
56,26:5
56,27:6
56,28:2
56,29:8
56,31:8
56,32:8
56,35:5
56,36:10
56,37:5
56,38:10
56,39:3
56,43:3
56,45:3
56,48:8
56,50:10
56,51:10
56,68:4
57,1:2
57,2:2
57,3:2
57,4:2
57,6:2
57,9:5
57,10:5
57,14:5
57,15:5
57,16:3
57,25:6
57,26:5
57,27:6
57,28:2
57,29:8
57,31:8
57,32:8
57,35:5
57,36:10
57,37:5
57,38:10
57,39:3
57,43:3
57,45:3
57,48:8
57,50:10
57,51:10
57,68:4
58,60:1
58,61:1
58,62:1
58,63:1
58,64:1
58,66:1
59,1:2
59,2:2
59,3:2
59,4:2
59,6:2
59,9:5
59,10:5
59,14:5
59,15:5
59,16:3
59,25:6
59,26:5
59,27:6
59,28:2
59,29:8
59,31:8
59,32:8
59,35:5
59,36:10
59,37:5
59,38:10
59,39:3
59,43:3
59,45:3
59,48:8
59,50:10
59,51:10
59,58:10
59,60:11
59,61:11
59,62:11
59,63:11
59,64:11
59,66:11
59,68:4
65,1:5
65,2:5
65,3:5
65,4:5
65,6:5
65,8:2
65,9:8
65,10:8
65,14:8
65,15:8
65,16:6
65,17:2
65,18:2
65,19:3
65,20:3
65,21:3
65,22:3
65,23:3
65,24:3
65,25:9
65,26:8
65,27:9
65,28:5
65,29:11
65,30:3
65,31:11
65,32:11
65,33:1
65,34:1
65,35:8
65,36:13
65,37:8
65,38:13
65,39:6
65,43:6
65,45:6
65,46:3
65,48:11
65,50:13
65,51:13
65,54:3
65,55:3
65,56:3
65,57:3
65,58:13
65,59:3
65,60:14
65,61:14
65,62:14
65,63:14
65,64:14
65,66:14
65,68:7
65,69:3
65,70:3
65,72:3
65,80:3
67,60:1
67,61:1
67,62:1
67,63:1
67,64:1
67,66:1
68,9:1
68,10:1
68,14:1
68,15:1
68,25:2
68,26:1
68,27:2
68,29:4
68,31:4
68,32:4
68,35:1
68,36:6
68,37:1
68,38:6
68,48:4
68,50:6
68,51:6
68,58:6
68,60:7
68,61:7
68,62:7
68,63:7
68,64:7
68,66:7
68,67:6
69,1:2
69,2:2
69,3:2
69,4:2
69,6:2
69,9:5
69,10:5
69,14:5
69,15:5
69,16:3
69,25:6
69,26:5
69,27:6
69,28:2
69,29:8
69,31:8
69,32:8
69,35:5
69,36:10
69,37:5
69,38:10
69,39:3
69,43:3
69,45:3
69,48:8
69,50:10
69,51:10
69,58:10
69,60:11
69,61:11
69,62:11
69,63:11
69,64:11
69,66:11
69,67:10
69,68:4
69,73:4
69,74:4
69,75:4
69,76:4
70,1:2
70,2:2
70,3:2
70,4:2
70,6:2
70,9:5
70,10:5
70,14:5
70,15:5
70,16:3
70,25:6
70,26:5
70,27:6
70,28:2
70,29:8
70,31:8
70,32:8
70,35:5
70,36:10
70,37:5
70,38:10
70,39:3
70,43:3
70,45:3
70,48:8
70,50:10
70,51:10
70,58:10
70,60:11
70,61:11
70,62:11
70,63:11
70,64:11
70,66:11
70,67:10
70,68:4
70,73:4
70,74:4
70,75:4
70,76:4
71,1:7
71,2:7
71,3:7
71,4:7
71,6:7
71,8:4
71,9:10
71,10:10
71,14:10
71,15:10
71,16:8
71,17:4
71,18:4
71,19:5
71,20:5
71,21:5
71,22:5
71,23:5
71,24:5
71,25:11
71,26:10
71,27:11
71,28:7
71,29:13
71,30:5
71,31:13
71,32:13
71,33:3
71,34:3
71,35:10
71,36:15
71,37:10
71,38:15
71,39:8
71,41:2
71,42:2
71,43:8
71,45:8
71,46:5
71,47:2
71,48:13
71,49:2
71,50:15
71,51:15
71,54:5
71,55:5
71,56:5
71,57:5
71,58:15
71,59:5
71,60:16
71,61:16
71,62:16
71,63:16
71,64:16
71,65:2
71,66:16
71,67:15
71,68:9
71,69:5
71,70:5
71,72:5
71,80:5
72,1:2
72,2:2
72,3:2
72,4:2
72,6:2
72,9:5
72,10:5
72,14:5
72,15:5
72,16:3
72,25:6
72,26:5
72,27:6
72,28:2
72,29:8
72,31:8
72,32:8
72,35:5
72,36:10
72,37:5
72,38:10
72,39:3
72,43:3
72,45:3
72,48:8
72,50:10
72,51:10
72,58:10
72,60:11
72,61:11
72,62:11
72,63:11
72,64:11
72,66:11
72,67:10
72,68:4
72,73:4
72,74:4
72,75:4
72,76:4
73,9:1
73,10:1
73,14:1
73,15:1
73,25:2
73,26:1
73,27:2
73,29:4
73,31:4
73,32:4
73,35:1
73,36:6
73,37:1
73,38:6
73,48:4
73,50:6
73,51:6
73,58:6
73,60:7
73,61:7
73,62:7
73,63:7
73,64:7
73,66:7
73,67:6
74,9:1
74,10:1
74,14:1
74,15:1
74,25:2
74,26:1
74,27:2
74,29:4
74,31:4
74,32:4
74,35:1
74,36:6
74,37:1
74,38:6
74,48:4
74,50:6
74,51:6
74,58:6
74,60:7
74,61:7
74,62:7
74,63:7
74,64:7
74,66:7
74,67:6
75,9:1
75,10:1
75,14:1
75,15:1
75,25:2
75,26:1
75,27:2
75,29:4
75,31:4
75,32:4
75,35:1
75,36:6
75,37:1
75,38:6
75,48:4
75,50:6
75,51:6
75,58:6
75,60:7
75,61:7
75,62:7
75,63:7
75,64:7
75,66:7
75,67:6
76,9:1
76,10:1
76,14:1
76,15:1
76,25:2
76,26:1
76,27:2
76,29:4
76,31:4
76,32:4
76,35:1
76,36:6
76,37:1
76,38:6
76,48:4
76,50:6
76,51:6
76,58:6
76,60:7
76,61:7
76,62:7
76,63:7
76,64:7
76,66:7
76,67:6
77,1:2
77,2:2
77,3:2
77,4:2
77,6:2
77,9:5
77,10:5
77,14:5
77,15:5
77,16:3
77,25:6
77,26:5
77,27:6
77,28:2
77,29:8
77,31:8
77,32:8
77,35:5
77,36:10
77,37:5
77,38:10
77,39:3
77,43:3
77,45:3
77,48:8
77,50:10
77,51:10
77,58:10
77,60:11
77,61:11
77,62:11
77,63:11
77,64:11
77,66:11
77,67:10
77,68:4
77,73:4
77,74:4
77,75:4
77,76:4
78,1:5
78,2:5
78,3:5
78,4:5
78,6:5
78,8:2
78,9:8
78,10:8
78,14:8
78,15:8
78,16:6
78,17:2
78,18:2
78,19:3
78,20:3
78,21:3
78,22:3
78,23:3
78,24:3
78,25:9
78,26:8
78,27:9
78,28:5
78,29:11
78,30:3
78,31:11
78,32:11
78,33:1
78,34:1
78,35:8
78,36:13
78,37:8
78,38:13
78,39:6
78,43:6
78,45:6
78,46:3
78,48:11
78,50:13
78,51:13
78,54:3
78,55:3
78,56:3
78,57:3
78,58:13
78,59:3
78,60:14
78,61:14
78,62:14
78,63:14
78,64:14
78,66:14
78,67:13
78,68:7
78,69:3
78,70:3
78,72:3
78,73:7
78,74:7
78,75:7
78,76:7
78,77:3
78,80:3
79,1:5
79,2:5
79,3:5
79,4:5
79,6:5
79,8:2
79,9:8
79,10:8
79,14:8
79,15:8
79,16:6
79,17:2
79,18:2
79,19:3
79,20:3
79,21:3
79,22:3
79,23:3
79,24:3
79,25:9
79,26:8
79,27:9
79,28:5
79,29:11
79,30:3
79,31:11
79,32:11
79,33:1
79,34:1
79,35:8
79,36:13
79,37:8
79,38:13
79,39:6
79,43:6
79,45:6
79,46:3
79,48:11
79,50:13
79,51:13
79,54:3
79,55:3
79,56:3
79,57:3
79,58:13
79,59:3
79,60:14
79,61:14
79,62:14
79,63:14
79,64:14
79,66:14
79,67:13
79,68:7
79,69:3
79,70:3
79,72:3
79,73:7
79,74:7
79,75:7
79,76:7
79,77:3
79,80:3
80,1:2
80,2:2
80,3:2
80,4:2
80,6:2
80,9:5
80,10:5
80,14:5
80,15:5
80,16:3
80,25:6
80,26:5
80,27:6
80,28:2
80,29:8
80,31:8
80,32:8
80,35:5
80,36:10
80,37:5
80,38:10
80,39:3
80,43:3
80,45:3
80,48:8
80,50:10
80,51:10
80,58:10
80,60:11
80,61:11
80,62:11
80,63:11
80,64:11
80,66:11
80,67:10
80,68:4
80,73:4
80,74:4
80,75:4
80,76:4
81,1:5
81,2:5
81,3:5
81,4:5
81,6:5
81,8:2
81,9:8
81,10:8
81,14:8
81,15:8
81,16:6
81,17:2
81,18:2
81,19:3
81,20:3
81,21:3
81,22:3
81,23:3
81,24:3
81,25:9
81,26:8
81,27:9
81,28:5
81,29:11
81,30:3
81,31:11
81,32:11
81,33:1
81,34:1
81,35:8
81,36:13
81,37:8
81,38:13
81,39:6
81,43:6
81,45:6
81,46:3
81,48:11
81,50:13
81,51:13
81,54:3
81,55:3
81,56:3
81,57:3
81,58:13
81,59:3
81,60:14
81,61:14
81,62:14
81,63:14
81,64:14
81,66:14
81,67:13
81,68:7
81,69:3
81,70:3
81,72:3
81,73:7
81,74:7
81,75:7
81,76:7
81,77:3
81,80:3
82,1:5
82,2:5
82,3:5
82,4:5
82,6:5
82,8:2
82,9:8
82,10:8
82,14:8
82,15:8
82,16:6
82,17:2
82,18:2
82,19:3
82,20:3
82,21:3
82,22:3
82,23:3
82,24:3
82,25:9
82,26:8
82,27:9
82,28:5
82,29:11
82,30:3
82,31:11
82,32:11
82,33:1
82,34:1
82,35:8
82,36:13
82,37:8
82,38:13
82,39:6
82,43:6
82,45:6
82,46:3
82,48:11
82,50:13
82,51:13
82,54:3
82,55:3
82,56:3
82,57:3
82,58:13
82,59:3
82,60:14
82,61:14
82,62:14
82,63:14
82,64:14
82,66:14
82,67:13
82,68:7
82,69:3
82,70:3
82,72:3
82,73:7
82,74:7
82,75:7
82,76:7
82,77:3
82,80:3
83,1:5
83,2:5
83,3:5
83,4:5
83,6:5
83,8:2
83,9:8
83,10:8
83,14:8
83,15:8
83,16:6
83,17:2
83,18:2
83,19:3
83,20:3
83,21:3
83,22:3
83,23:3
83,24:3
83,25:9
83,26:8
83,27:9
83,28:5
83,29:11
83,30:3
83,31:11
83,32:11
83,33:1
83,34:1
83,35:8
83,36:13
83,37:8
83,38:13
83,39:6
83,43:6
83,45:6
83,46:3
83,48:11
83,50:13
83,51:13
83,54:3
83,55:3
83,56:3
83,57:3
83,58:13
83,59:3
83,60:14
83,61:14
83,62:14
83,63:14
83,64:14
83,66:14
83,67:13
83,68:7
83,69:3
83,70:3
83,72:3
83,73:7
83,74:7
83,75:7
83,76:7
83,77:3
83,80:3
84,1:5
84,2:5
84,3:5
84,4:5
84,6:5
84,8:2
84,9:8
84,10:8
84,14:8
84,15:8
84,16:6
84,17:2
84,18:2
84,19:3
84,20:3
84,21:3
84,22:3
84,23:3
84,24:3
84,25:9
84,26:8
84,27:9
84,28:5
84,29:11
84,30:3
84,31:11
84,32:11
84,33:1
84,34:1
84,35:8
84,36:13
84,37:8
84,38:13
84,39:6
84,43:6
84,45:6
84,46:3
84,48:11
84,50:13
84,51:13
84,54:3
84,55:3
84,56:3
84,57:3
84,58:13
84,59:3
84,60:14
84,61:14
84,62:14
84,63:14
84,64:14
84,66:14
84,67:13
84,68:7
84,69:3
84,70:3
84,72:3
84,73:7
84,74:7
84,75:7
84,76:7
84,77:3
84,80:3
85,1:5
85,2:5
85,3:5
85,4:5
85,6:5
85,8:2
85,9:8
85,10:8
85,14:8
85,15:8
85,16:6
85,17:2
85,18:2
85,19:3
85,20:3
85,21:3
85,22:3
85,23:3
85,24:3
85,25:9
85,26:8
85,27:9
85,28:5
85,29:11
85,30:3
85,31:11
85,32:11
85,33:1
85,34:1
85,35:8
85,36:13
85,37:8
85,38:13
85,39:6
85,43:6
85,45:6
85,46:3
85,48:11
85,50:13
85,51:13
85,54:3
85,55:3
85,56:3
85,57:3
85,58:13
85,59:3
85,60:14
85,61:14
85,62:14
85,63:14
85,64:14
85,66:14
85,67:13
85,68:7
85,69:3
85,70:3
85,72:3
85,73:7
85,74:7
85,75:7
85,76:7
85,77:3
85,80:3
86,1:5
86,2:5
86,3:5
86,4:5
86,6:5
86,8:2
86,9:8
86,10:8
86,14:8
86,15:8
86,16:6
86,17:2
86,18:2
86,19:3
86,20:3
86,21:3
86,22:3
86,23:3
86,24:3
86,25:9
86,26:8
86,27:9
86,28:5
86,29:11
86,30:3
86,31:11
86,32:11
86,33:1
86,34:1
86,35:8
86,36:13
86,37:8
86,38:13
86,39:6
86,43:6
86,45:6
86,46:3
86,48:11
86,50:13
86,51:13
86,54:3
86,55:3
86,56:3
86,57:3
86,58:13
86,59:3
86,60:14
86,61:14
86,62:14
86,63:14
86,64:14
86,66:14
86,67:13
86,68:7
86,69:3
86,70:3
86,72:3
86,73:7
86,74:7
86,75:7
86,76:7
86,77:3
86,80:3
87,36:2
87,38:2
87,50:2
87,51:2
87,58:2
87,60:3
87,61:3
87,62:3
87,63:3
87,64:3
87,66:3
87,67:2
88,36:2
88,38:2
88,50:2
88,51:2
88,58:2
88,60:3
88,61:3
88,62:3
88,63:3
88,64:3
88,66:3
88,67:2
89,36:2
89,38:2
89,50:2
89,51:2
89,58:2
89,60:3
89,61:3
89,62:3
89,63:3
89,64:3
89,66:3
89,67:2

<end>

<optimal SALBP-1 value>
22


<rand seed>
467321153

